c strEdges: 125  randomEdges: 504 
c degrees:  1  2 
c girth: Inf max: -43.604516  
c Hgirth mixed MAXCUT instance
c generated from an undirected graph
c to solve unweighted MaxCut
p cnf 140 1258
140 136 0
-140 -136 0
140 43 0
-140 -43 0
70 97 0
-70 -97 0
70 120 0
-70 -120 0
121 99 0
-121 -99 0
121 130 0
-121 -130 0
100 40 0
-100 -40 0
100 111 0
-100 -111 0
55 114 0
-55 -114 0
55 15 0
-55 -15 0
138 74 0
-138 -74 0
138 67 0
-138 -67 0
7 139 0
-7 -139 0
7 98 0
-7 -98 0
52 15 0
-52 -15 0
52 108 0
-52 -108 0
19 48 0
-19 -48 0
19 11 0
-19 -11 0
16 37 0
-16 -37 0
16 112 0
-16 -112 0
75 53 0
-75 -53 0
125 76 0
-125 -76 0
125 88 0
-125 -88 0
63 83 0
-63 -83 0
63 101 0
-63 -101 0
18 107 0
-18 -107 0
18 34 0
-18 -34 0
31 93 0
-31 -93 0
31 25 0
-31 -25 0
65 124 0
-65 -124 0
65 92 0
-65 -92 0
68 116 0
-68 -116 0
68 109 0
-68 -109 0
21 71 0
-21 -71 0
21 80 0
-21 -80 0
10 2 0
-10 -2 0
10 95 0
-10 -95 0
72 25 0
-72 -25 0
72 114 0
-72 -114 0
12 51 0
-12 -51 0
12 83 0
-12 -83 0
45 105 0
-45 -105 0
36 135 0
-36 -135 0
36 38 0
-36 -38 0
103 88 0
-103 -88 0
103 37 0
-103 -37 0
94 78 0
-94 -78 0
94 46 0
-94 -46 0
6 108 0
-6 -108 0
6 2 0
-6 -2 0
35 137 0
-35 -137 0
35 74 0
-35 -74 0
77 132 0
-77 -132 0
77 99 0
-77 -99 0
110 109 0
-110 -109 0
110 115 0
-110 -115 0
56 119 0
-56 -119 0
56 3 0
-56 -3 0
41 80 0
-41 -80 0
106 1 0
-106 -1 0
129 89 0
-129 -89 0
134 23 0
-134 -23 0
134 116 0
-134 -116 0
49 117 0
-49 -117 0
49 93 0
-49 -93 0
58 8 0
-58 -8 0
58 60 0
-58 -60 0
64 79 0
-64 -79 0
42 69 0
-42 -69 0
42 39 0
-42 -39 0
126 5 0
-126 -5 0
17 13 0
-17 -13 0
17 71 0
-17 -71 0
113 39 0
-113 -39 0
113 51 0
-113 -51 0
47 118 0
-47 -118 0
47 105 0
-47 -105 0
33 101 0
-33 -101 0
33 118 0
-33 -118 0
9 38 0
-9 -38 0
9 122 0
-9 -122 0
26 122 0
-26 -122 0
26 132 0
-26 -132 0
81 120 0
-81 -120 0
20 59 0
-20 -59 0
96 14 0
-96 -14 0
86 130 0
-86 -130 0
86 48 0
-86 -48 0
44 24 0
-44 -24 0
44 85 0
-44 -85 0
54 27 0
-54 -27 0
54 89 0
-54 -89 0
84 91 0
-84 -91 0
84 139 0
-84 -139 0
32 66 0
-32 -66 0
32 69 0
-32 -69 0
87 50 0
-87 -50 0
87 27 0
-87 -27 0
30 82 0
-30 -82 0
30 53 0
-30 -53 0
62 46 0
-62 -46 0
62 5 0
-62 -5 0
127 92 0
-127 -92 0
127 24 0
-127 -24 0
128 43 0
-128 -43 0
128 50 0
-128 -50 0
133 98 0
-133 -98 0
133 14 0
-133 -14 0
28 34 0
-28 -34 0
28 136 0
-28 -136 0
123 95 0
-123 -95 0
123 97 0
-123 -97 0
22 11 0
-22 -11 0
4 73 0
-4 -73 0
4 66 0
-4 -66 0
131 60 0
-131 -60 0
131 1 0
-131 -1 0
61 67 0
-61 -67 0
90 112 0
-90 -112 0
102 115 0
-102 -115 0
102 124 0
-102 -124 0
104 85 0
-104 -85 0
57 3 0
-57 -3 0
29 111 0
-29 -111 0
29 107 0
-29 -107 0
98 112 0
-98 -112 0
135 132 0
-135 -132 0
18 50 0
-18 -50 0
64 32 0
-64 -32 0
47 101 0
-47 -101 0
65 73 0
-65 -73 0
125 132 0
-125 -132 0
58 116 0
-58 -116 0
2 117 0
-2 -117 0
82 34 0
-82 -34 0
47 44 0
-47 -44 0
26 131 0
-26 -131 0
116 67 0
-116 -67 0
125 35 0
-125 -35 0
121 123 0
-121 -123 0
100 59 0
-100 -59 0
108 91 0
-108 -91 0
61 40 0
-61 -40 0
26 118 0
-26 -118 0
97 27 0
-97 -27 0
42 83 0
-42 -83 0
31 97 0
-31 -97 0
132 8 0
-132 -8 0
105 34 0
-105 -34 0
75 67 0
-75 -67 0
139 98 0
-139 -98 0
51 38 0
-51 -38 0
50 67 0
-50 -67 0
61 114 0
-61 -114 0
97 117 0
-97 -117 0
18 53 0
-18 -53 0
10 116 0
-10 -116 0
58 96 0
-58 -96 0
125 101 0
-125 -101 0
114 71 0
-114 -71 0
107 130 0
-107 -130 0
96 97 0
-96 -97 0
62 71 0
-62 -71 0
25 130 0
-25 -130 0
52 48 0
-52 -48 0
127 50 0
-127 -50 0
53 69 0
-53 -69 0
84 93 0
-84 -93 0
2 13 0
-2 -13 0
61 15 0
-61 -15 0
107 124 0
-107 -124 0
31 120 0
-31 -120 0
9 67 0
-9 -67 0
84 62 0
-84 -62 0
94 139 0
-94 -139 0
121 47 0
-121 -47 0
36 111 0
-36 -111 0
86 84 0
-86 -84 0
63 30 0
-63 -30 0
106 137 0
-106 -137 0
25 109 0
-25 -109 0
21 53 0
-21 -53 0
135 137 0
-135 -137 0
86 127 0
-86 -127 0
21 35 0
-21 -35 0
54 97 0
-54 -97 0
17 61 0
-17 -61 0
54 59 0
-54 -59 0
81 88 0
-81 -88 0
58 102 0
-58 -102 0
121 120 0
-121 -120 0
14 111 0
-14 -111 0
65 23 0
-65 -23 0
97 37 0
-97 -37 0
42 46 0
-42 -46 0
68 94 0
-68 -94 0
62 74 0
-62 -74 0
7 114 0
-7 -114 0
83 122 0
-83 -122 0
20 130 0
-20 -130 0
55 45 0
-55 -45 0
32 128 0
-32 -128 0
113 81 0
-113 -81 0
47 8 0
-47 -8 0
110 48 0
-110 -48 0
96 37 0
-96 -37 0
68 61 0
-68 -61 0
87 8 0
-87 -8 0
54 128 0
-54 -128 0
100 13 0
-100 -13 0
49 116 0
-49 -116 0
53 66 0
-53 -66 0
12 110 0
-12 -110 0
26 78 0
-26 -78 0
116 69 0
-116 -69 0
31 24 0
-31 -24 0
117 3 0
-117 -3 0
2 1 0
-2 -1 0
41 109 0
-41 -109 0
17 53 0
-17 -53 0
121 19 0
-121 -19 0
77 123 0
-77 -123 0
96 79 0
-96 -79 0
10 4 0
-10 -4 0
44 2 0
-44 -2 0
125 32 0
-125 -32 0
103 53 0
-103 -53 0
18 47 0
-18 -47 0
118 38 0
-118 -38 0
98 115 0
-98 -115 0
94 130 0
-94 -130 0
51 117 0
-51 -117 0
37 71 0
-37 -71 0
7 39 0
-7 -39 0
48 112 0
-48 -112 0
52 16 0
-52 -16 0
29 79 0
-29 -79 0
57 137 0
-57 -137 0
125 12 0
-125 -12 0
33 84 0
-33 -84 0
84 48 0
-84 -48 0
19 50 0
-19 -50 0
106 114 0
-106 -114 0
88 109 0
-88 -109 0
26 44 0
-26 -44 0
53 122 0
-53 -122 0
41 64 0
-41 -64 0
140 26 0
-140 -26 0
117 59 0
-117 -59 0
107 60 0
-107 -60 0
58 83 0
-58 -83 0
106 119 0
-106 -119 0
61 38 0
-61 -38 0
77 37 0
-77 -37 0
18 106 0
-18 -106 0
121 87 0
-121 -87 0
72 120 0
-72 -120 0
23 50 0
-23 -50 0
100 7 0
-100 -7 0
81 59 0
-81 -59 0
39 95 0
-39 -95 0
89 130 0
-89 -130 0
127 11 0
-127 -11 0
32 102 0
-32 -102 0
72 97 0
-72 -97 0
42 113 0
-42 -113 0
16 97 0
-16 -97 0
126 123 0
-126 -123 0
88 80 0
-88 -80 0
22 137 0
-22 -137 0
136 119 0
-136 -119 0
2 23 0
-2 -23 0
129 74 0
-129 -74 0
7 109 0
-7 -109 0
138 4 0
-138 -4 0
6 44 0
-6 -44 0
140 132 0
-140 -132 0
134 20 0
-134 -20 0
102 38 0
-102 -38 0
127 43 0
-127 -43 0
21 87 0
-21 -87 0
87 67 0
-87 -67 0
30 92 0
-30 -92 0
12 58 0
-12 -58 0
35 132 0
-35 -132 0
103 123 0
-103 -123 0
60 67 0
-60 -67 0
87 119 0
-87 -119 0
102 93 0
-102 -93 0
42 2 0
-42 -2 0
117 92 0
-117 -92 0
45 53 0
-45 -53 0
81 108 0
-81 -108 0
108 132 0
-108 -132 0
75 38 0
-75 -38 0
19 13 0
-19 -13 0
55 90 0
-55 -90 0
32 71 0
-32 -71 0
110 106 0
-110 -106 0
94 2 0
-94 -2 0
49 86 0
-49 -86 0
94 3 0
-94 -3 0
125 109 0
-125 -109 0
136 69 0
-136 -69 0
123 108 0
-123 -108 0
19 116 0
-19 -116 0
97 137 0
-97 -137 0
56 127 0
-56 -127 0
30 66 0
-30 -66 0
121 85 0
-121 -85 0
140 91 0
-140 -91 0
5 50 0
-5 -50 0
140 50 0
-140 -50 0
138 68 0
-138 -68 0
90 2 0
-90 -2 0
21 132 0
-21 -132 0
55 14 0
-55 -14 0
140 129 0
-140 -129 0
121 2 0
-121 -2 0
43 60 0
-43 -60 0
28 48 0
-28 -48 0
70 63 0
-70 -63 0
55 129 0
-55 -129 0
63 3 0
-63 -3 0
21 127 0
-21 -127 0
9 132 0
-9 -132 0
131 34 0
-131 -34 0
10 59 0
-10 -59 0
53 2 0
-53 -2 0
135 39 0
-135 -39 0
107 67 0
-107 -67 0
47 98 0
-47 -98 0
134 86 0
-134 -86 0
140 72 0
-140 -72 0
106 115 0
-106 -115 0
52 102 0
-52 -102 0
47 78 0
-47 -78 0
138 122 0
-138 -122 0
7 34 0
-7 -34 0
51 115 0
-51 -115 0
37 24 0
-37 -24 0
44 139 0
-44 -139 0
63 139 0
-63 -139 0
29 120 0
-29 -120 0
8 82 0
-8 -82 0
80 118 0
-80 -118 0
104 3 0
-104 -3 0
104 117 0
-104 -117 0
88 82 0
-88 -82 0
47 69 0
-47 -69 0
64 60 0
-64 -60 0
10 78 0
-10 -78 0
125 29 0
-125 -29 0
20 122 0
-20 -122 0
10 80 0
-10 -80 0
97 40 0
-97 -40 0
123 11 0
-123 -11 0
71 38 0
-71 -38 0
117 118 0
-117 -118 0
16 136 0
-16 -136 0
69 5 0
-69 -5 0
105 95 0
-105 -95 0
88 3 0
-88 -3 0
33 98 0
-33 -98 0
63 122 0
-63 -122 0
48 83 0
-48 -83 0
10 30 0
-10 -30 0
51 43 0
-51 -43 0
140 135 0
-140 -135 0
68 53 0
-68 -53 0
133 117 0
-133 -117 0
57 85 0
-57 -85 0
38 34 0
-38 -34 0
48 119 0
-48 -119 0
57 116 0
-57 -116 0
127 95 0
-127 -95 0
33 80 0
-33 -80 0
98 111 0
-98 -111 0
13 118 0
-13 -118 0
16 13 0
-16 -13 0
129 46 0
-129 -46 0
75 42 0
-75 -42 0
33 71 0
-33 -71 0
134 24 0
-134 -24 0
100 22 0
-100 -22 0
100 92 0
-100 -92 0
74 120 0
-74 -120 0
58 78 0
-58 -78 0
44 79 0
-44 -79 0
65 42 0
-65 -42 0
9 102 0
-9 -102 0
62 67 0
-62 -67 0
64 76 0
-64 -76 0
13 112 0
-13 -112 0
119 27 0
-119 -27 0
62 131 0
-62 -131 0
37 59 0
-37 -59 0
15 3 0
-15 -3 0
54 131 0
-54 -131 0
76 130 0
-76 -130 0
41 99 0
-41 -99 0
4 109 0
-4 -109 0
36 77 0
-36 -77 0
65 10 0
-65 -10 0
68 132 0
-68 -132 0
97 69 0
-97 -69 0
49 32 0
-49 -32 0
21 107 0
-21 -107 0
113 89 0
-113 -89 0
105 82 0
-105 -82 0
65 82 0
-65 -82 0
113 25 0
-113 -25 0
86 25 0
-86 -25 0
31 129 0
-31 -129 0
91 115 0
-91 -115 0
20 99 0
-20 -99 0
47 2 0
-47 -2 0
1 95 0
-1 -95 0
24 46 0
-24 -46 0
26 86 0
-26 -86 0
44 50 0
-44 -50 0
31 83 0
-31 -83 0
9 39 0
-9 -39 0
126 90 0
-126 -90 0
15 69 0
-15 -69 0
56 61 0
-56 -61 0
64 26 0
-64 -26 0
16 67 0
-16 -67 0
63 25 0
-63 -25 0
53 117 0
-53 -117 0
20 98 0
-20 -98 0
106 29 0
-106 -29 0
32 57 0
-32 -57 0
139 25 0
-139 -25 0
70 46 0
-70 -46 0
70 43 0
-70 -43 0
61 104 0
-61 -104 0
87 37 0
-87 -37 0
52 86 0
-52 -86 0
52 112 0
-52 -112 0
116 132 0
-116 -132 0
97 115 0
-97 -115 0
36 101 0
-36 -101 0
138 61 0
-138 -61 0
12 90 0
-12 -90 0
61 93 0
-61 -93 0
97 73 0
-97 -73 0
9 96 0
-9 -96 0
110 51 0
-110 -51 0
4 24 0
-4 -24 0
92 60 0
-92 -60 0
94 108 0
-94 -108 0
125 38 0
-125 -38 0
48 27 0
-48 -27 0
49 69 0
-49 -69 0
106 11 0
-106 -11 0
126 20 0
-126 -20 0
46 11 0
-46 -11 0
84 38 0
-84 -38 0
136 14 0
-136 -14 0
113 116 0
-113 -116 0
109 50 0
-109 -50 0
49 90 0
-49 -90 0
93 91 0
-93 -91 0
9 59 0
-9 -59 0
107 71 0
-107 -71 0
36 122 0
-36 -122 0
53 13 0
-53 -13 0
55 126 0
-55 -126 0
133 22 0
-133 -22 0
65 44 0
-65 -44 0
129 59 0
-129 -59 0
136 39 0
-136 -39 0
55 52 0
-55 -52 0
53 51 0
-53 -51 0
19 61 0
-19 -61 0
15 24 0
-15 -24 0
32 127 0
-32 -127 0
19 78 0
-19 -78 0
116 59 0
-116 -59 0
47 1 0
-47 -1 0
61 82 0
-61 -82 0
122 98 0
-122 -98 0
36 120 0
-36 -120 0
90 124 0
-90 -124 0
25 119 0
-25 -119 0
2 51 0
-2 -51 0
31 139 0
-31 -139 0
94 53 0
-94 -53 0
54 107 0
-54 -107 0
51 135 0
-51 -135 0
22 118 0
-22 -118 0
61 115 0
-61 -115 0
87 115 0
-87 -115 0
121 29 0
-121 -29 0
140 85 0
-140 -85 0
62 88 0
-62 -88 0
30 59 0
-30 -59 0
78 122 0
-78 -122 0
75 81 0
-75 -81 0
52 49 0
-52 -49 0
108 79 0
-108 -79 0
126 95 0
-126 -95 0
80 73 0
-80 -73 0
10 47 0
-10 -47 0
4 124 0
-4 -124 0
132 89 0
-132 -89 0
63 95 0
-63 -95 0
7 65 0
-7 -65 0
15 135 0
-15 -135 0
70 121 0
-70 -121 0
123 98 0
-123 -98 0
63 12 0
-63 -12 0
18 6 0
-18 -6 0
16 115 0
-16 -115 0
77 8 0
-77 -8 0
105 101 0
-105 -101 0
83 107 0
-83 -107 0
26 74 0
-26 -74 0
35 47 0
-35 -47 0
69 101 0
-69 -101 0
45 95 0
-45 -95 0
89 91 0
-89 -91 0
87 71 0
-87 -71 0
131 78 0
-131 -78 0
119 118 0
-119 -118 0
42 98 0
-42 -98 0
79 73 0
-79 -73 0
107 51 0
-107 -51 0
55 44 0
-55 -44 0
36 83 0
-36 -83 0
131 80 0
-131 -80 0
38 82 0
-38 -82 0
131 74 0
-131 -74 0
68 8 0
-68 -8 0
64 14 0
-64 -14 0
16 130 0
-16 -130 0
20 40 0
-20 -40 0
93 85 0
-93 -85 0
75 113 0
-75 -113 0
63 79 0
-63 -79 0
7 106 0
-7 -106 0
137 89 0
-137 -89 0
100 119 0
-100 -119 0
123 80 0
-123 -80 0
100 65 0
-100 -65 0
16 79 0
-16 -79 0
31 39 0
-31 -39 0
32 15 0
-32 -15 0
19 42 0
-19 -42 0
136 53 0
-136 -53 0
10 11 0
-10 -11 0
64 43 0
-64 -43 0
126 44 0
-126 -44 0
22 102 0
-22 -102 0
30 28 0
-30 -28 0
19 131 0
-19 -131 0
19 58 0
-19 -58 0
56 38 0
-56 -38 0
32 95 0
-32 -95 0
99 38 0
-99 -38 0
73 85 0
-73 -85 0
63 31 0
-63 -31 0
35 28 0
-35 -28 0
129 3 0
-129 -3 0
125 58 0
-125 -58 0
31 102 0
-31 -102 0
110 113 0
-110 -113 0
137 120 0
-137 -120 0
125 64 0
-125 -64 0
68 104 0
-68 -104 0
26 105 0
-26 -105 0
110 69 0
-110 -69 0
32 30 0
-32 -30 0
58 97 0
-58 -97 0
86 91 0
-86 -91 0
100 79 0
-100 -79 0
70 38 0
-70 -38 0
81 109 0
-81 -109 0
42 24 0
-42 -24 0
65 66 0
-65 -66 0
58 67 0
-58 -67 0
65 72 0
-65 -72 0
94 84 0
-94 -84 0
121 33 0
-121 -33 0
131 51 0
-131 -51 0
90 73 0
-90 -73 0
20 71 0
-20 -71 0
58 84 0
-58 -84 0
41 122 0
-41 -122 0
12 118 0
-12 -118 0
127 111 0
-127 -111 0
16 90 0
-16 -90 0
30 115 0
-30 -115 0
56 32 0
-56 -32 0
94 126 0
-94 -126 0
41 60 0
-41 -60 0
54 53 0
-54 -53 0
26 84 0
-26 -84 0
20 43 0
-20 -43 0
91 82 0
-91 -82 0
121 127 0
-121 -127 0
105 132 0
-105 -132 0
41 86 0
-41 -86 0
10 101 0
-10 -101 0
40 119 0
-40 -119 0
117 115 0
-117 -115 0
133 13 0
-133 -13 0
49 20 0
-49 -20 0
9 136 0
-9 -136 0
16 59 0
-16 -59 0
84 39 0
-84 -39 0
15 122 0
-15 -122 0
45 76 0
-45 -76 0
30 69 0
-30 -69 0
53 14 0
-53 -14 0
51 23 0
-51 -23 0
56 96 0
-56 -96 0
21 44 0
-21 -44 0
139 8 0
-139 -8 0
123 13 0
-123 -13 0
119 43 0
-119 -43 0
55 73 0
-55 -73 0
18 32 0
-18 -32 0
114 69 0
-114 -69 0
139 13 0
-139 -13 0
125 33 0
-125 -33 0
121 114 0
-121 -114 0
31 112 0
-31 -112 0
